100 3 100
50 51 3 92 72 92 51 82 60 1 38 85 76 87 68 39 56 5 6 84 37 29 35 57 31 51 80 76 86 95 88 36 98 91 29 71 36 32 5 48 85 95 33 13 34 53 53 91 58 11 75 47 92 62 56 23 13 37 51 51 84 91 87 83 83 68 6 71 11 19 38 7 52 51 41 57 4 84 15 15 11 15 7 73 71 82 38 60 86 89 45 77 29 28 12 97 86 83 50 97 
